
Gurobi 10.0.0 (win64) logging started Wed Jun 12 15:18:36 2024

Set parameter LogFile to value "C:\Users\ealvarezq\Documents\GitHub\Comillas\Models\JointResearch\05. Models\06.Benchmarking\B.Operation_cost\RTS24_mod2_ByStages_nc70/openStarNet_RTS24_mod2_ByStages_nc70.log"
Set parameter Method to value 2
Set parameter MIPFocus to value 1
Set parameter Presolve to value 2
Set parameter RINS to value 100
Set parameter MIPGap to value 0.01
Set parameter Threads to value 9
Set parameter TimeLimit to value 259200
Set parameter IterationLimit to value 760000000
Gurobi Optimizer version 10.0.0 build v10.0.0rc2 (win64)

CPU model: Intel(R) Core(TM) i7-8700 CPU @ 3.20GHz, instruction set [SSE2|AVX|AVX2]
Thread count: 6 physical cores, 12 logical processors, using up to 9 threads

Optimize a model with 24853 rows, 16769 columns and 67674 nonzeros
Model fingerprint: 0xfd844ef7
Variable types: 16748 continuous, 21 integer (21 binary)
Coefficient statistics:
  Matrix range     [9e-03, 9e+02]
  Objective range  [1e+00, 1e+00]
  Bounds range     [4e-05, 2e+00]
  RHS range        [4e-05, 2e+00]
Presolve removed 14789 rows and 8457 columns
Presolve time: 0.12s
Presolved: 10064 rows, 8312 columns, 36343 nonzeros
Variable types: 8291 continuous, 21 integer (21 binary)
Found heuristic solution: objective 98.7187885
Root relaxation presolved: 10064 rows, 8312 columns, 36343 nonzeros

Root barrier log...

Ordering time: 0.00s

Barrier statistics:
 Dense cols : 21
 AA' NZ     : 6.745e+04
 Factor NZ  : 1.933e+05 (roughly 9 MB of memory)
 Factor Ops : 3.962e+06 (less than 1 second per iteration)
 Threads    : 9

                  Objective                Residual
Iter       Primal          Dual         Primal    Dual     Compl     Time
   0   6.45329956e+05 -8.12407738e+07  5.22e+00 2.05e+02  9.65e+03     0s
   1   9.08719635e+04 -2.07857727e+07  6.52e-01 3.00e-09  1.31e+03     0s
   2   2.93076425e+04 -3.06373130e+06  1.33e-01 5.32e-09  1.62e+02     0s
   3   1.57387205e+04 -7.37865995e+05  3.69e-03 1.43e-09  3.24e+01     0s
   4   8.14057647e+03 -8.07229313e+04  2.35e-13 6.46e-11  3.78e+00     0s
   5   2.66031679e+03 -1.74215329e+04  1.57e-13 5.46e-12  8.55e-01     0s
   6   8.58825347e+02 -4.63309430e+03  1.62e-13 1.80e-12  2.34e-01     0s
   7   3.19088765e+02 -1.64150273e+03  1.04e-13 1.15e-12  8.34e-02     0s
   8   2.16578145e+02 -1.04042516e+03  9.15e-14 1.17e-12  5.35e-02     0s
   9   1.49749083e+02 -2.96516118e+02  7.37e-14 1.08e-12  1.90e-02     0s
  10   1.14269281e+02 -8.90496850e+01  8.62e-14 9.32e-13  8.65e-03     0s
  11   8.75831848e+01 -2.77931161e+01  1.93e-13 8.07e-13  4.91e-03     0s
  12   7.28892496e+01  2.89671449e+01  1.73e-13 1.12e-12  1.87e-03     0s
  13   6.61528375e+01  4.14311114e+01  1.81e-13 1.65e-12  1.05e-03     0s
  14   6.07848778e+01  4.86768690e+01  6.96e-13 1.14e-12  5.15e-04     0s
  15   5.96491471e+01  5.16189397e+01  9.17e-13 1.44e-12  3.42e-04     0s
  16   5.78513848e+01  5.32250179e+01  3.38e-12 1.71e-12  1.97e-04     0s
  17   5.72798464e+01  5.50672706e+01  2.22e-12 2.07e-12  9.42e-05     0s
  18   5.68598194e+01  5.55292709e+01  9.70e-12 1.04e-12  5.66e-05     0s
  19   5.66441597e+01  5.57876940e+01  5.45e-12 1.51e-12  3.65e-05     0s
  20   5.65194644e+01  5.60501320e+01  3.39e-12 9.24e-13  2.00e-05     0s
  21   5.64479288e+01  5.62093872e+01  1.49e-11 1.52e-12  1.02e-05     0s
  22   5.64050875e+01  5.63450610e+01  1.36e-11 8.95e-13  2.55e-06     0s
  23   5.63964051e+01  5.63805632e+01  1.16e-10 2.19e-12  6.74e-07     0s
  24   5.63944752e+01  5.63868048e+01  2.61e-10 1.57e-12  3.26e-07     0s
  25   5.63930413e+01  5.63892535e+01  5.68e-10 2.24e-12  1.61e-07     0s
  26   5.63926414e+01  5.63906738e+01  3.68e-10 8.56e-13  8.37e-08     0s
  27   5.63924644e+01  5.63914554e+01  2.21e-10 1.68e-12  4.29e-08     0s
  28   5.63923181e+01  5.63917120e+01  3.40e-10 1.81e-12  2.58e-08     0s
  29   5.63922737e+01  5.63918819e+01  9.07e-10 1.48e-12  1.67e-08     0s
  30   5.63922716e+01  5.63921155e+01  2.01e-09 8.48e-11  6.64e-09     0s
  31   5.63922682e+01  5.63921352e+01  1.07e-09 7.38e-11  5.66e-09     0s
  32   5.63922663e+01  5.63922159e+01  9.01e-10 6.68e-11  2.14e-09     0s
  33   5.63922648e+01  5.63922648e+01  2.59e-10 2.58e-12  2.16e-12     0s

Barrier solved model in 33 iterations and 0.40 seconds (0.43 work units)
Optimal objective 5.63922648e+01


Root relaxation: objective 5.639226e+01, 1449 iterations, 0.24 seconds (0.21 work units)

    Nodes    |    Current Node    |     Objective Bounds      |     Work
 Expl Unexpl |  Obj  Depth IntInf | Incumbent    BestBd   Gap | It/Node Time

     0     0   56.39226    0   17   98.71879   56.39226  42.9%     -    0s
     0     0   57.66861    0   14   98.71879   57.66861  41.6%     -    0s
H    0     0                      95.0722524   57.66861  39.3%     -    1s
H    0     0                      89.1898939   57.78919  35.2%     -    1s
H    0     0                      82.8314774   57.78919  30.2%     -    1s
     0     0   57.78919    0   14   82.83148   57.78919  30.2%     -    1s
     0     0   57.79483    0   14   82.83148   57.79483  30.2%     -    1s
     0     0   57.79737    0   14   82.83148   57.79737  30.2%     -    1s
     0     0   58.07668    0   16   82.83148   58.07668  29.9%     -    1s
     0     0   58.10749    0   16   82.83148   58.10749  29.8%     -    1s
     0     0   58.16400    0   16   82.83148   58.16400  29.8%     -    1s
     0     0   58.16400    0   16   82.83148   58.16400  29.8%     -    1s
     0     0   58.16400    0   16   82.83148   58.16400  29.8%     -    1s
     0     0   58.17548    0   16   82.83148   58.17548  29.8%     -    1s
     0     0   58.17548    0   16   82.83148   58.17548  29.8%     -    1s
H    0     0                      81.9001199   58.50525  28.6%     -    2s
     0     0   58.54858    0   15   81.90012   58.54858  28.5%     -    2s
     0     0   58.87316    0   14   81.90012   58.87316  28.1%     -    2s
     0     0   58.87316    0   13   81.90012   58.87316  28.1%     -    2s
     0     0   58.87316    0   14   81.90012   58.87316  28.1%     -    2s
     0     0   58.87316    0   12   81.90012   58.87316  28.1%     -    2s
     0     0   58.87316    0   12   81.90012   58.87316  28.1%     -    2s
     0     0   58.87316    0   12   81.90012   58.87316  28.1%     -    2s
H    0     0                      80.7841027   58.92647  27.1%     -    2s
     0     0   58.92647    0   16   80.78410   58.92647  27.1%     -    2s
     0     0   59.19377    0   13   80.78410   59.19377  26.7%     -    2s
     0     0   59.20985    0   13   80.78410   59.20985  26.7%     -    2s
H    0     0                      71.3519218   59.20985  17.0%     -   11s
     0     2   59.20985    0   13   71.35192   59.20985  17.0%     -   11s
    94    87   68.30338   10   10   71.35192   59.62178  16.4%   426   15s
   474   159   67.94156    9   10   71.35192   64.06130  10.2%   299   20s
  1463    57     cutoff    9        71.35192   69.43161  2.69%   195   25s

Cutting planes:
  Gomory: 3
  Implied bound: 111
  MIR: 295
  Relax-and-lift: 50

Explored 1717 nodes (311595 simplex iterations) in 26.86 seconds (36.11 work units)
Thread count was 9 (of 12 available processors)

Solution count 7: 71.3519 80.7841 81.9001 ... 98.7188

Optimal solution found (tolerance 1.00e-02)
Best objective 7.135192180378e+01, best bound 7.135192180378e+01, gap 0.0000%

Gurobi 10.0.0 (win64) logging started Wed Jun 12 15:19:07 2024

Set parameter LogFile to value "C:\Users\ealvarezq\Documents\GitHub\Comillas\Models\JointResearch\05. Models\06.Benchmarking\B.Operation_cost\RTS24_mod2_ByStages_nc70/openStarNet_RTS24_mod2_ByStages_nc70.log"
Set parameter Method to value 2
Set parameter MIPFocus to value 1
Set parameter Presolve to value 2
Set parameter RINS to value 100
Set parameter MIPGap to value 0.01
Set parameter Threads to value 9
Set parameter TimeLimit to value 259200
Set parameter IterationLimit to value 760000000
Gurobi Optimizer version 10.0.0 build v10.0.0rc2 (win64)

CPU model: Intel(R) Core(TM) i7-8700 CPU @ 3.20GHz, instruction set [SSE2|AVX|AVX2]
Thread count: 6 physical cores, 12 logical processors, using up to 9 threads

Optimize a model with 24853 rows, 16748 columns and 61773 nonzeros
Model fingerprint: 0x2b780bbe
Coefficient statistics:
  Matrix range     [9e-03, 9e+02]
  Objective range  [1e+00, 1e+00]
  Bounds range     [4e-05, 2e+00]
  RHS range        [4e-05, 2e+01]
Presolve removed 20933 rows and 9690 columns
Presolve time: 0.03s
Presolved: 3920 rows, 7182 columns, 17684 nonzeros

Ordering time: 0.00s

Barrier statistics:
 AA' NZ     : 1.023e+04
 Factor NZ  : 3.882e+04 (roughly 4 MB of memory)
 Factor Ops : 5.695e+05 (less than 1 second per iteration)
 Threads    : 1

                  Objective                Residual
Iter       Primal          Dual         Primal    Dual     Compl     Time
   0   2.63642932e+06 -2.98457725e+07  1.86e+01 1.95e+03  3.07e+04     0s
   1   1.71004568e+05 -2.16820596e+07  1.12e+00 1.82e-11  3.18e+03     0s
   2   6.29490738e+04 -6.51188119e+06  3.71e-01 3.09e-11  7.62e+02     0s
   3   2.35958373e+04 -1.73991521e+06  3.04e-02 2.18e-11  1.48e+02     0s
   4   1.49602156e+04 -1.74407161e+05  1.13e-03 1.46e-11  1.51e+01     0s
   5   6.02949278e+03 -3.98691466e+04  8.59e-06 7.28e-12  3.64e+00     0s
   6   1.67382928e+03 -1.03466922e+04  9.01e-07 3.98e-12  9.53e-01     0s
   7   4.56012366e+02 -3.71628401e+03  3.87e-08 4.86e-12  3.31e-01     0s
   8   2.11040098e+02 -5.80997268e+02  3.04e-10 6.29e-12  6.28e-02     0s
   9   1.35865911e+02 -2.05075400e+02  1.02e-10 3.43e-12  2.70e-02     0s
  10   1.10406246e+02 -4.39818716e+01  5.15e-11 2.43e-12  1.22e-02     0s
  11   8.73056268e+01  1.76982847e+01  1.67e-11 2.43e-12  5.52e-03     0s
  12   7.96527681e+01  4.91449236e+01  7.73e-12 1.91e-12  2.42e-03     0s
  13   7.40599892e+01  6.33179746e+01  4.90e-12 3.15e-12  8.52e-04     0s
  14   7.20448832e+01  7.06114759e+01  2.33e-11 3.04e-12  1.14e-04     0s
  15   7.14998926e+01  7.12712861e+01  2.90e-11 4.80e-12  1.81e-05     0s
  16   7.13830211e+01  7.13262260e+01  8.99e-11 8.75e-12  4.50e-06     0s
  17   7.13576065e+01  7.13483494e+01  4.58e-11 4.61e-12  7.34e-07     0s
  18   7.13523438e+01  7.13516833e+01  7.29e-10 4.72e-12  5.24e-08     0s
  19   7.13519219e+01  7.13519213e+01  2.11e-09 3.58e-12  4.77e-11     0s
  20   7.13519218e+01  7.13519218e+01  2.82e-09 4.26e-12  4.77e-14     0s

Barrier solved model in 20 iterations and 0.08 seconds (0.08 work units)
Optimal objective 7.13519218e+01

Crossover log...

     788 DPushes remaining with DInf 0.0000000e+00                 0s
       0 DPushes remaining with DInf 0.0000000e+00                 0s

     269 PPushes remaining with PInf 0.0000000e+00                 0s
       0 PPushes remaining with PInf 0.0000000e+00                 0s

  Push phase complete: Pinf 0.0000000e+00, Dinf 5.1097221e-13      0s

Iteration    Objective       Primal Inf.    Dual Inf.      Time
     276    7.1351922e+01   0.000000e+00   0.000000e+00      0s

Use crossover to convert LP symmetric solution to basic solution...
Crossover log...

       0 DPushes remaining with DInf 0.0000000e+00                 0s

     144 PPushes remaining with PInf 0.0000000e+00                 0s
       0 PPushes remaining with PInf 0.0000000e+00                 0s

  Push phase complete: Pinf 0.0000000e+00, Dinf 5.4735163e-13      0s

Iteration    Objective       Primal Inf.    Dual Inf.      Time
     428    7.1351922e+01   0.000000e+00   0.000000e+00      0s

Solved in 428 iterations and 0.12 seconds (0.10 work units)
Optimal objective  7.135192180e+01
